42 1 79 6 46 89 4 41 23 94 67 59 40 57 74 93 14 73 16 18 15 88 80 20 75 58 19 33 0 50 21 78 43 54 49 45 76 87 29 37 77 65 72 53 61 3 63 34 32 13 55 7 64 39 69 82 11 84 92 96 25 22 10 83 62 5 9 24 52 36 26 86 47 12 35 66 81 2 68 60 8 85 98 17 48 38 28 56 70 31 30 99 91 95 44 51 27 71 90 97 

